10 45
1 2 10
1 3 13
1 4 8
1 5 21
1 6 22
1 7 20
1 8 18
1 9 12
1 10 5
2 3 5
2 4 28
2 5 17
2 6 18
2 7 4
2 8 12
2 9 0
2 10 18
3 4 3
3 5 26
3 6 6
3 7 27
3 8 1
3 9 6
3 10 4
4 5 15
4 6 28
4 7 15
4 8 8
4 9 3
4 10 8
5 6 29
5 7 9
5 8 27
5 9 4
5 10 12
6 7 4
6 8 28
6 9 26
6 10 5
7 8 7
7 9 24
7 10 13
8 9 1
8 10 13
9 10 6
